results_rootrelaxation/bin012_070_046.srr.sol
solution status: optimal solution found
objective value:                                   10
_var731_                            0.148148148148149 	(obj:0)
_var747_                            0.185185185185185 	(obj:2)
_var769_                            0.296296296296296 	(obj:1)
_var771_                            0.166666666666667 	(obj:0)
_var772_                            0.203703703703704 	(obj:0)
_var783_                            0.388888888888889 	(obj:1)
_var792_                            0.185185185185185 	(obj:1)
_var795_                            0.203703703703704 	(obj:1)
_var805_                            0.407407407407407 	(obj:1)
_var810_                           0.0740740740740737 	(obj:1)
_var811_                            0.222222222222223 	(obj:1)
_var826_                           0.0555555555555555 	(obj:0)
_var834_                            0.185185185185185 	(obj:1)
_var835_                            0.333333333333333 	(obj:1)
_var842_                            0.185185185185185 	(obj:2)
_var848_                             0.25925925925926 	(obj:0)
_var850_                            0.111111111111112 	(obj:0)
_var852_                            0.296296296296296 	(obj:1)
_var853_                            0.203703703703704 	(obj:2)
_var857_                           0.0740740740740743 	(obj:1)
_var858_                            0.611111111111111 	(obj:1)
_var859_                            0.407407407407407 	(obj:0)
_var861_                            0.111111111111111 	(obj:1)
_var862_                            0.388888888888889 	(obj:0)
_var863_                           0.0370370370370371 	(obj:1)
_var864_                            0.092592592592592 	(obj:3)
_var865_                            0.166666666666666 	(obj:1)
_var867_                            0.388888888888889 	(obj:1)
_var869_                            0.203703703703704 	(obj:1)
_var871_                            0.222222222222221 	(obj:0)
_var875_                            0.240740740740741 	(obj:1)
_var877_                            0.203703703703704 	(obj:2)
_var880_                            0.111111111111111 	(obj:1)
_var882_                           0.0370370370370383 	(obj:1)
_var883_                            0.129629629629629 	(obj:1)
_var885_                            0.425925925925926 	(obj:2)
_var886_                           0.0740740740740742 	(obj:1)
_var887_                            0.203703703703705 	(obj:0)
_var889_                           0.0185185185185185 	(obj:2)
_var894_                            0.166666666666667 	(obj:1)
_var897_                             0.37037037037037 	(obj:1)
_var903_                            0.166666666666667 	(obj:0)
_var905_                           0.0555555555555562 	(obj:0)
_var906_                            0.203703703703703 	(obj:1)
_var908_                           0.0925925925925927 	(obj:2)
_var909_                            0.037037037037037 	(obj:1)
_var911_                           0.0740740740740735 	(obj:1)
_var915_                            0.222222222222222 	(obj:1)
_var916_                            0.277777777777777 	(obj:0)
_var917_                            0.166666666666667 	(obj:1)
_var922_                            0.259259259259259 	(obj:1)
_var924_                           0.0185185185185185 	(obj:2)
_var925_                             0.37037037037037 	(obj:1)
_var929_                           0.0555555555555556 	(obj:3)
_var930_                           0.0185185185185185 	(obj:1)
_var933_                           0.0555555555555555 	(obj:1)
_var934_                             0.11111111111111 	(obj:1)
_var935_                           0.0185185185185188 	(obj:3)
